StringID     Type         x            y            demand       ReadyTime    DueDate      ServiceTime  PartnerID    
D0           d            40.0         50.0         0.0          0.0          3390.0       0.0          0            
S0           f            40.0         50.0         0.0          0.0          3390.0       0.0          0            
S1           f            77.0         52.0         0.0          0.0          3390.0       0.0          0            
S5           f            31.0         84.0         0.0          0.0          3390.0       0.0          0            
S15          f            39.0         26.0         0.0          0.0          3390.0       0.0          0            
S19          f            77.0         30.0         0.0          0.0          3390.0       0.0          0            
C3           cp           62.0         69.0         20.0         130.0        290.0        90.0         C41          
C10          cp           35.0         66.0         20.0         28.0         188.0        90.0         C99          
C17          cd           18.0         75.0         -40.0        0.0          3266.0       90.0         C87          
C23          cp           14.0         66.0         20.0         1176.0       1336.0       90.0         C27          
C27          cd           23.0         52.0         -20.0        2832.0       2992.0       90.0         C23          
C41          cd           35.0         32.0         -20.0        0.0          3281.0       90.0         C3           
C43          cp           33.0         35.0         60.0         27.0         187.0        90.0         C63          
C51          cp           25.0         30.0         20.0         587.0        747.0        90.0         C76          
C58          cd           38.0         5.0          -30.0        0.0          3254.0       90.0         C100         
C63          cd           50.0         40.0         -60.0        1910.0       2070.0       90.0         C43          
C73          cd           92.0         30.0         -30.0        0.0          3244.0       90.0         C82          
C76          cd           90.0         35.0         -20.0        845.0        1005.0       90.0         C51          
C82          cp           75.0         55.0         30.0         508.0        668.0        90.0         C73          
C87          cp           64.0         46.0         40.0         0.0          3275.0       90.0         C17          
C99          cd           55.0         80.0         -20.0        890.0        1050.0       90.0         C10          
C100         cp           38.0         5.0          30.0         0.0          3254.0       0.0          C58          

Vehicle battery capacity : 77.75
Vehicle freight capacity : 700.0
battery consumption rate : 1.0
inverse recharging rate : 3.47
average velocity : 1.0
